robust/generate/spp_dkp_Lefebvre_et_al_2026/src/shortest_path_11_5.kp
47
421

[0.54 4.66 3.49 1.68 3.39 3.83 3.09 1.98 3.38 1.18 1.22 0.11 0.47 1.44 3.07 1.54 0.89 4.39 1.3 1.31 4.57 0.61 3.57 0.03 4.1 3.33 2.65 4.47 2.45 0.85 2.57 1.4 0.05 4.23 3.14 4.51 3.56 1.28 1.73 2.52 2.62 1.24 0.84 1.73 0.67 1.86 2.26 4.63 0.7 2.46 2.52 1.46 0.76 2.86 0.5 2.72 1.85 0.41 2.69 3.1 3.17 0.91 4.56 0.28 4.21 3.75 1.21 4.44 2.13 1.8 4.28 3.61 3.71 4.21 2.3 1.45 2.12 2.53 2.91 2.51 4.68 2.88 4.0 0.41 2.34 4.31 4.39 1.04]

[32 49 89 93 55 67 24 99 33 64 94 84 10 60 44 30 82 13 59 25 88 50 12 10 41 66 73 81 17 6 85 79 6 45 93 9 70 73 11 32 18 92 92 22 45 19 35 47 57 36 85 45 87 75 16 38 58 13 36 87 74 28 36 31 96 95 46 10 53 74 50 96 49 80 89 58 97 21 23 82 44 71 58 8 43 64 10 90]
