robust/generate/spp_dkp_Lefebvre_et_al_2026/src/shortest_path_11_5.lp
\ Model sp_11_5
\ LP format - for model browsing. Use MPS format to capture full model detail.
\ Signature: 0xb050d3b5baabe1c8
Minimize
  62.8 y[0,1] + 66.29 y[0,2] + 24.08 y[0,3] + 45.62 y[0,4] + 70.18 y[0,5]
   + 76.42 y[0,7] + 42.3 y[0,8] + 51.48 y[0,9] + 77.1 y[0,10] + 62.8 y[1,0]
   + 4.24 y[1,2] + 39.85 y[1,3] + 23.26 y[1,4] + 9.43 y[1,5] + 58.83 y[1,6]
   + 14.14 y[1,7] + 66.29 y[1,9] + 46.87 y[1,10] + 66.29 y[2,0]
   + 4.24 y[2,1] + 43.66 y[2,3] + 25 y[2,4] + 9.43 y[2,5] + 59.94 y[2,6]
   + 12.08 y[2,7] + 70.46 y[2,9] + 44.64 y[2,10] + 24.08 y[3,0]
   + 39.85 y[3,1] + 43.66 y[3,2] + 27.8 y[3,4] + 46.53 y[3,5]
   + 52.95 y[3,7] + 44.28 y[3,8] + 43.01 y[3,9] + 64.85 y[3,10]
   + 45.62 y[4,0] + 23.26 y[4,1] + 25 y[4,2] + 27.8 y[4,3] + 32.65 y[4,5]
   + 37 y[4,7] + 71.69 y[4,8] + 66.94 y[4,9] + 37.95 y[4,10] + 70.18 y[5,0]
   + 9.43 y[5,1] + 9.43 y[5,2] + 46.53 y[5,3] + 32.65 y[5,4] + 50.54 y[5,6]
   + 6.71 y[5,7] + 67.27 y[5,9] + 53.76 y[5,10] + 58.83 y[6,1]
   + 59.94 y[6,2] + 50.54 y[6,5] + 50.92 y[6,7] + 68.18 y[6,9]
   + 76.42 y[7,0] + 14.14 y[7,1] + 12.08 y[7,2] + 52.95 y[7,3] + 37 y[7,4]
   + 6.71 y[7,5] + 50.92 y[7,6] + 73.55 y[7,9] + 53.23 y[7,10]
   + 42.3 y[8,0] + 44.28 y[8,3] + 71.69 y[8,4] + 20.22 y[8,9]
   + 51.48 y[9,0] + 66.29 y[9,1] + 70.46 y[9,2] + 43.01 y[9,3]
   + 66.94 y[9,4] + 67.27 y[9,5] + 68.18 y[9,6] + 73.55 y[9,7]
   + 20.22 y[9,8] + 77.1 y[10,0] + 46.87 y[10,1] + 44.64 y[10,2]
   + 64.85 y[10,3] + 37.95 y[10,4] + 53.76 y[10,5] + 53.23 y[10,7]
   + 6.28 r[0,1] + 6.629 r[0,2] + 2.408 r[0,3] + 4.562 r[0,4]
   + 7.018 r[0,5] + 7.642 r[0,7] + 4.23 r[0,8] + 5.148 r[0,9]
   + 7.71 r[0,10] + 6.28 r[1,0] + 0.424 r[1,2] + 3.985 r[1,3]
   + 2.326 r[1,4] + 0.943 r[1,5] + 5.883 r[1,6] + 1.414 r[1,7]
   + 6.629 r[1,9] + 4.687 r[1,10] + 6.629 r[2,0] + 0.424 r[2,1]
   + 4.366 r[2,3] + 2.5 r[2,4] + 0.943 r[2,5] + 5.994 r[2,6] + 1.208 r[2,7]
   + 7.046 r[2,9] + 4.464 r[2,10] + 2.408 r[3,0] + 3.985 r[3,1]
   + 4.366 r[3,2] + 2.78 r[3,4] + 4.653 r[3,5] + 5.295 r[3,7]
   + 4.428 r[3,8] + 4.301 r[3,9] + 6.485 r[3,10] + 4.562 r[4,0]
   + 2.326 r[4,1] + 2.5 r[4,2] + 2.78 r[4,3] + 3.265 r[4,5] + 3.7 r[4,7]
   + 7.169 r[4,8] + 6.694 r[4,9] + 3.795 r[4,10] + 7.018 r[5,0]
   + 0.943 r[5,1] + 0.943 r[5,2] + 4.653 r[5,3] + 3.265 r[5,4]
   + 5.054 r[5,6] + 0.671 r[5,7] + 6.727 r[5,9] + 5.376 r[5,10]
   + 5.883 r[6,1] + 5.994 r[6,2] + 5.054 r[6,5] + 5.092 r[6,7]
   + 6.818 r[6,9] + 7.642 r[7,0] + 1.414 r[7,1] + 1.208 r[7,2]
   + 5.295 r[7,3] + 3.7 r[7,4] + 0.671 r[7,5] + 5.092 r[7,6] + 7.355 r[7,9]
   + 5.323 r[7,10] + 4.23 r[8,0] + 4.428 r[8,3] + 7.169 r[8,4]
   + 2.022 r[8,9] + 5.148 r[9,0] + 6.629 r[9,1] + 7.046 r[9,2]
   + 4.301 r[9,3] + 6.694 r[9,4] + 6.727 r[9,5] + 6.818 r[9,6]
   + 7.355 r[9,7] + 2.022 r[9,8] + 7.71 r[10,0] + 4.687 r[10,1]
   + 4.464 r[10,2] + 6.485 r[10,3] + 3.795 r[10,4] + 5.376 r[10,5]
   + 5.323 r[10,7]
Subject To
 flow_cons_inner_nodes[0]: - y[0,1] - y[0,2] - y[0,3] - y[0,4] - y[0,5]
   - y[0,7] - y[0,8] - y[0,9] - y[0,10] + y[1,0] + y[2,0] + y[3,0] + y[4,0]
   + y[5,0] + y[7,0] + y[8,0] + y[9,0] + y[10,0] = 0
 flow_cons_inner_nodes[1]: y[0,1] - y[1,0] - y[1,2] - y[1,3] - y[1,4]
   - y[1,5] - y[1,6] - y[1,7] - y[1,9] - y[1,10] + y[2,1] + y[3,1] + y[4,1]
   + y[5,1] + y[6,1] + y[7,1] + y[9,1] + y[10,1] = 0
 flow_cons_inner_nodes[2]: y[0,2] + y[1,2] - y[2,0] - y[2,1] - y[2,3]
   - y[2,4] - y[2,5] - y[2,6] - y[2,7] - y[2,9] - y[2,10] + y[3,2] + y[4,2]
   + y[5,2] + y[6,2] + y[7,2] + y[9,2] + y[10,2] = 0
 flow_cons_inner_nodes[3]: y[0,3] + y[1,3] + y[2,3] - y[3,0] - y[3,1]
   - y[3,2] - y[3,4] - y[3,5] - y[3,7] - y[3,8] - y[3,9] - y[3,10] + y[4,3]
   + y[5,3] + y[7,3] + y[8,3] + y[9,3] + y[10,3] = 0
 flow_cons_inner_nodes[4]: y[0,4] + y[1,4] + y[2,4] + y[3,4] - y[4,0]
   - y[4,1] - y[4,2] - y[4,3] - y[4,5] - y[4,7] - y[4,8] - y[4,9] - y[4,10]
   + y[5,4] + y[7,4] + y[8,4] + y[9,4] + y[10,4] = 0
 flow_cons_inner_nodes[5]: y[0,5] + y[1,5] + y[2,5] + y[3,5] + y[4,5]
   - y[5,0] - y[5,1] - y[5,2] - y[5,3] - y[5,4] - y[5,6] - y[5,7] - y[5,9]
   - y[5,10] + y[6,5] + y[7,5] + y[9,5] + y[10,5] = 0
 flow_cons_inner_nodes[6]: y[1,6] + y[2,6] + y[5,6] - y[6,1] - y[6,2]
   - y[6,5] - y[6,7] - y[6,9] + y[7,6] + y[9,6] = 0
 flow_cons_inner_nodes[7]: y[0,7] + y[1,7] + y[2,7] + y[3,7] + y[4,7]
   + y[5,7] + y[6,7] - y[7,0] - y[7,1] - y[7,2] - y[7,3] - y[7,4] - y[7,5]
   - y[7,6] - y[7,9] - y[7,10] + y[9,7] + y[10,7] = 0
 flow_cons_inner_nodes[9]: y[0,9] + y[1,9] + y[2,9] + y[3,9] + y[4,9]
   + y[5,9] + y[6,9] + y[7,9] + y[8,9] - y[9,0] - y[9,1] - y[9,2] - y[9,3]
   - y[9,4] - y[9,5] - y[9,6] - y[9,7] - y[9,8] = 0
 flow_cons_source: - y[0,8] - y[3,8] - y[4,8] + y[8,0] + y[8,3] + y[8,4]
   + y[8,9] - y[9,8] = 1
 flow_cons_target: y[0,10] + y[1,10] + y[2,10] + y[3,10] + y[4,10]
   + y[5,10] + y[7,10] - y[10,0] - y[10,1] - y[10,2] - y[10,3] - y[10,4]
   - y[10,5] - y[10,7] = 1
 primal_lower: - 0.54 y[0,1] - 4.66 y[0,2] - 3.49 y[0,3] - 1.68 y[0,4]
   - 3.39 y[0,5] - 3.83 y[0,7] - 3.09 y[0,8] - 1.98 y[0,9] - 3.38 y[0,10]
   - 1.18 y[1,0] - 1.22 y[1,2] - 0.11 y[1,3] - 0.47 y[1,4] - 1.44 y[1,5]
   - 3.07 y[1,6] - 1.54 y[1,7] - 0.89 y[1,9] - 4.39 y[1,10] - 1.3 y[2,0]
   - 1.31 y[2,1] - 4.57 y[2,3] - 0.61 y[2,4] - 3.57 y[2,5] - 0.03 y[2,6]
   - 4.1 y[2,7] - 3.33 y[2,9] - 2.65 y[2,10] - 4.47 y[3,0] - 2.45 y[3,1]
   - 0.85 y[3,2] - 2.57 y[3,4] - 1.4 y[3,5] - 0.05 y[3,7] - 4.23 y[3,8]
   - 3.14 y[3,9] - 4.51 y[3,10] - 3.56 y[4,0] - 1.28 y[4,1] - 1.73 y[4,2]
   - 2.52 y[4,3] - 2.62 y[4,5] - 1.24 y[4,7] - 0.84 y[4,8] - 1.73 y[4,9]
   - 0.67 y[4,10] - 1.86 y[5,0] - 2.26 y[5,1] - 4.63 y[5,2] - 0.7 y[5,3]
   - 2.46 y[5,4] - 2.52 y[5,6] - 1.46 y[5,7] - 0.76 y[5,9] - 2.86 y[5,10]
   - 0.5 y[6,1] - 2.72 y[6,2] - 1.85 y[6,5] - 0.41 y[6,7] - 2.69 y[6,9]
   - 3.1 y[7,0] - 3.17 y[7,1] - 0.91 y[7,2] - 4.56 y[7,3] - 0.28 y[7,4]
   - 4.21 y[7,5] - 3.75 y[7,6] - 1.21 y[7,9] - 4.44 y[7,10] - 2.13 y[8,0]
   - 1.8 y[8,3] - 4.28 y[8,4] - 3.61 y[8,9] - 3.71 y[9,0] - 4.21 y[9,1]
   - 2.3 y[9,2] - 1.45 y[9,3] - 2.12 y[9,4] - 2.53 y[9,5] - 2.91 y[9,6]
   - 2.51 y[9,7] - 4.68 y[9,8] - 2.88 y[10,0] - 4 y[10,1] - 0.41 y[10,2]
   - 2.34 y[10,3] - 4.31 y[10,4] - 4.39 y[10,5] - 1.04 y[10,7] + 32 u[0,1]
   + 49 u[0,2] + 89 u[0,3] + 93 u[0,4] + 55 u[0,5] + 67 u[0,7] + 24 u[0,8]
   + 99 u[0,9] + 33 u[0,10] + 64 u[1,0] + 94 u[1,2] + 84 u[1,3] + 10 u[1,4]
   + 60 u[1,5] + 44 u[1,6] + 30 u[1,7] + 82 u[1,9] + 13 u[1,10] + 59 u[2,0]
   + 25 u[2,1] + 88 u[2,3] + 50 u[2,4] + 12 u[2,5] + 10 u[2,6] + 41 u[2,7]
   + 66 u[2,9] + 73 u[2,10] + 81 u[3,0] + 17 u[3,1] + 6 u[3,2] + 85 u[3,4]
   + 79 u[3,5] + 6 u[3,7] + 45 u[3,8] + 93 u[3,9] + 9 u[3,10] + 70 u[4,0]
   + 73 u[4,1] + 11 u[4,2] + 32 u[4,3] + 18 u[4,5] + 92 u[4,7] + 92 u[4,8]
   + 22 u[4,9] + 45 u[4,10] + 19 u[5,0] + 35 u[5,1] + 47 u[5,2] + 57 u[5,3]
   + 36 u[5,4] + 85 u[5,6] + 45 u[5,7] + 87 u[5,9] + 75 u[5,10] + 16 u[6,1]
   + 38 u[6,2] + 58 u[6,5] + 13 u[6,7] + 36 u[6,9] + 87 u[7,0] + 74 u[7,1]
   + 28 u[7,2] + 36 u[7,3] + 31 u[7,4] + 96 u[7,5] + 95 u[7,6] + 46 u[7,9]
   + 10 u[7,10] + 53 u[8,0] + 74 u[8,3] + 50 u[8,4] + 96 u[8,9] + 49 u[9,0]
   + 80 u[9,1] + 89 u[9,2] + 58 u[9,3] + 97 u[9,4] + 21 u[9,5] + 23 u[9,6]
   + 82 u[9,7] + 44 u[9,8] + 71 u[10,0] + 58 u[10,1] + 8 u[10,2]
   + 43 u[10,3] + 64 u[10,4] + 10 u[10,5] + 90 u[10,7] <= 421
 mccormick1[0,1]: - u[0,1] + r[0,1] <= 0
 mccormick1[0,2]: - u[0,2] + r[0,2] <= 0
 mccormick1[0,3]: - u[0,3] + r[0,3] <= 0
 mccormick1[0,4]: - u[0,4] + r[0,4] <= 0
 mccormick1[0,5]: - u[0,5] + r[0,5] <= 0
 mccormick1[0,7]: - u[0,7] + r[0,7] <= 0
 mccormick1[0,8]: - u[0,8] + r[0,8] <= 0
 mccormick1[0,9]: - u[0,9] + r[0,9] <= 0
 mccormick1[0,10]: - u[0,10] + r[0,10] <= 0
 mccormick1[1,0]: - u[1,0] + r[1,0] <= 0
 mccormick1[1,2]: - u[1,2] + r[1,2] <= 0
 mccormick1[1,3]: - u[1,3] + r[1,3] <= 0
 mccormick1[1,4]: - u[1,4] + r[1,4] <= 0
 mccormick1[1,5]: - u[1,5] + r[1,5] <= 0
 mccormick1[1,6]: - u[1,6] + r[1,6] <= 0
 mccormick1[1,7]: - u[1,7] + r[1,7] <= 0
 mccormick1[1,9]: - u[1,9] + r[1,9] <= 0
 mccormick1[1,10]: - u[1,10] + r[1,10] <= 0
 mccormick1[2,0]: - u[2,0] + r[2,0] <= 0
 mccormick1[2,1]: - u[2,1] + r[2,1] <= 0
 mccormick1[2,3]: - u[2,3] + r[2,3] <= 0
 mccormick1[2,4]: - u[2,4] + r[2,4] <= 0
 mccormick1[2,5]: - u[2,5] + r[2,5] <= 0
 mccormick1[2,6]: - u[2,6] + r[2,6] <= 0
 mccormick1[2,7]: - u[2,7] + r[2,7] <= 0
 mccormick1[2,9]: - u[2,9] + r[2,9] <= 0
 mccormick1[2,10]: - u[2,10] + r[2,10] <= 0
 mccormick1[3,0]: - u[3,0] + r[3,0] <= 0
 mccormick1[3,1]: - u[3,1] + r[3,1] <= 0
 mccormick1[3,2]: - u[3,2] + r[3,2] <= 0
 mccormick1[3,4]: - u[3,4] + r[3,4] <= 0
 mccormick1[3,5]: - u[3,5] + r[3,5] <= 0
 mccormick1[3,7]: - u[3,7] + r[3,7] <= 0
 mccormick1[3,8]: - u[3,8] + r[3,8] <= 0
 mccormick1[3,9]: - u[3,9] + r[3,9] <= 0
 mccormick1[3,10]: - u[3,10] + r[3,10] <= 0
 mccormick1[4,0]: - u[4,0] + r[4,0] <= 0
 mccormick1[4,1]: - u[4,1] + r[4,1] <= 0
 mccormick1[4,2]: - u[4,2] + r[4,2] <= 0
 mccormick1[4,3]: - u[4,3] + r[4,3] <= 0
 mccormick1[4,5]: - u[4,5] + r[4,5] <= 0
 mccormick1[4,7]: - u[4,7] + r[4,7] <= 0
 mccormick1[4,8]: - u[4,8] + r[4,8] <= 0
 mccormick1[4,9]: - u[4,9] + r[4,9] <= 0
 mccormick1[4,10]: - u[4,10] + r[4,10] <= 0
 mccormick1[5,0]: - u[5,0] + r[5,0] <= 0
 mccormick1[5,1]: - u[5,1] + r[5,1] <= 0
 mccormick1[5,2]: - u[5,2] + r[5,2] <= 0
 mccormick1[5,3]: - u[5,3] + r[5,3] <= 0
 mccormick1[5,4]: - u[5,4] + r[5,4] <= 0
 mccormick1[5,6]: - u[5,6] + r[5,6] <= 0
 mccormick1[5,7]: - u[5,7] + r[5,7] <= 0
 mccormick1[5,9]: - u[5,9] + r[5,9] <= 0
 mccormick1[5,10]: - u[5,10] + r[5,10] <= 0
 mccormick1[6,1]: - u[6,1] + r[6,1] <= 0
 mccormick1[6,2]: - u[6,2] + r[6,2] <= 0
 mccormick1[6,5]: - u[6,5] + r[6,5] <= 0
 mccormick1[6,7]: - u[6,7] + r[6,7] <= 0
 mccormick1[6,9]: - u[6,9] + r[6,9] <= 0
 mccormick1[7,0]: - u[7,0] + r[7,0] <= 0
 mccormick1[7,1]: - u[7,1] + r[7,1] <= 0
 mccormick1[7,2]: - u[7,2] + r[7,2] <= 0
 mccormick1[7,3]: - u[7,3] + r[7,3] <= 0
 mccormick1[7,4]: - u[7,4] + r[7,4] <= 0
 mccormick1[7,5]: - u[7,5] + r[7,5] <= 0
 mccormick1[7,6]: - u[7,6] + r[7,6] <= 0
 mccormick1[7,9]: - u[7,9] + r[7,9] <= 0
 mccormick1[7,10]: - u[7,10] + r[7,10] <= 0
 mccormick1[8,0]: - u[8,0] + r[8,0] <= 0
 mccormick1[8,3]: - u[8,3] + r[8,3] <= 0
 mccormick1[8,4]: - u[8,4] + r[8,4] <= 0
 mccormick1[8,9]: - u[8,9] + r[8,9] <= 0
 mccormick1[9,0]: - u[9,0] + r[9,0] <= 0
 mccormick1[9,1]: - u[9,1] + r[9,1] <= 0
 mccormick1[9,2]: - u[9,2] + r[9,2] <= 0
 mccormick1[9,3]: - u[9,3] + r[9,3] <= 0
 mccormick1[9,4]: - u[9,4] + r[9,4] <= 0
 mccormick1[9,5]: - u[9,5] + r[9,5] <= 0
 mccormick1[9,6]: - u[9,6] + r[9,6] <= 0
 mccormick1[9,7]: - u[9,7] + r[9,7] <= 0
 mccormick1[9,8]: - u[9,8] + r[9,8] <= 0
 mccormick1[10,0]: - u[10,0] + r[10,0] <= 0
 mccormick1[10,1]: - u[10,1] + r[10,1] <= 0
 mccormick1[10,2]: - u[10,2] + r[10,2] <= 0
 mccormick1[10,3]: - u[10,3] + r[10,3] <= 0
 mccormick1[10,4]: - u[10,4] + r[10,4] <= 0
 mccormick1[10,5]: - u[10,5] + r[10,5] <= 0
 mccormick1[10,7]: - u[10,7] + r[10,7] <= 0
 mccormick2[0,1]: - y[0,1] + r[0,1] <= 0
 mccormick2[0,2]: - y[0,2] + r[0,2] <= 0
 mccormick2[0,3]: - y[0,3] + r[0,3] <= 0
 mccormick2[0,4]: - y[0,4] + r[0,4] <= 0
 mccormick2[0,5]: - y[0,5] + r[0,5] <= 0
 mccormick2[0,7]: - y[0,7] + r[0,7] <= 0
 mccormick2[0,8]: - y[0,8] + r[0,8] <= 0
 mccormick2[0,9]: - y[0,9] + r[0,9] <= 0
 mccormick2[0,10]: - y[0,10] + r[0,10] <= 0
 mccormick2[1,0]: - y[1,0] + r[1,0] <= 0
 mccormick2[1,2]: - y[1,2] + r[1,2] <= 0
 mccormick2[1,3]: - y[1,3] + r[1,3] <= 0
 mccormick2[1,4]: - y[1,4] + r[1,4] <= 0
 mccormick2[1,5]: - y[1,5] + r[1,5] <= 0
 mccormick2[1,6]: - y[1,6] + r[1,6] <= 0
 mccormick2[1,7]: - y[1,7] + r[1,7] <= 0
 mccormick2[1,9]: - y[1,9] + r[1,9] <= 0
 mccormick2[1,10]: - y[1,10] + r[1,10] <= 0
 mccormick2[2,0]: - y[2,0] + r[2,0] <= 0
 mccormick2[2,1]: - y[2,1] + r[2,1] <= 0
 mccormick2[2,3]: - y[2,3] + r[2,3] <= 0
 mccormick2[2,4]: - y[2,4] + r[2,4] <= 0
 mccormick2[2,5]: - y[2,5] + r[2,5] <= 0
 mccormick2[2,6]: - y[2,6] + r[2,6] <= 0
 mccormick2[2,7]: - y[2,7] + r[2,7] <= 0
 mccormick2[2,9]: - y[2,9] + r[2,9] <= 0
 mccormick2[2,10]: - y[2,10] + r[2,10] <= 0
 mccormick2[3,0]: - y[3,0] + r[3,0] <= 0
 mccormick2[3,1]: - y[3,1] + r[3,1] <= 0
 mccormick2[3,2]: - y[3,2] + r[3,2] <= 0
 mccormick2[3,4]: - y[3,4] + r[3,4] <= 0
 mccormick2[3,5]: - y[3,5] + r[3,5] <= 0
 mccormick2[3,7]: - y[3,7] + r[3,7] <= 0
 mccormick2[3,8]: - y[3,8] + r[3,8] <= 0
 mccormick2[3,9]: - y[3,9] + r[3,9] <= 0
 mccormick2[3,10]: - y[3,10] + r[3,10] <= 0
 mccormick2[4,0]: - y[4,0] + r[4,0] <= 0
 mccormick2[4,1]: - y[4,1] + r[4,1] <= 0
 mccormick2[4,2]: - y[4,2] + r[4,2] <= 0
 mccormick2[4,3]: - y[4,3] + r[4,3] <= 0
 mccormick2[4,5]: - y[4,5] + r[4,5] <= 0
 mccormick2[4,7]: - y[4,7] + r[4,7] <= 0
 mccormick2[4,8]: - y[4,8] + r[4,8] <= 0
 mccormick2[4,9]: - y[4,9] + r[4,9] <= 0
 mccormick2[4,10]: - y[4,10] + r[4,10] <= 0
 mccormick2[5,0]: - y[5,0] + r[5,0] <= 0
 mccormick2[5,1]: - y[5,1] + r[5,1] <= 0
 mccormick2[5,2]: - y[5,2] + r[5,2] <= 0
 mccormick2[5,3]: - y[5,3] + r[5,3] <= 0
 mccormick2[5,4]: - y[5,4] + r[5,4] <= 0
 mccormick2[5,6]: - y[5,6] + r[5,6] <= 0
 mccormick2[5,7]: - y[5,7] + r[5,7] <= 0
 mccormick2[5,9]: - y[5,9] + r[5,9] <= 0
 mccormick2[5,10]: - y[5,10] + r[5,10] <= 0
 mccormick2[6,1]: - y[6,1] + r[6,1] <= 0
 mccormick2[6,2]: - y[6,2] + r[6,2] <= 0
 mccormick2[6,5]: - y[6,5] + r[6,5] <= 0
 mccormick2[6,7]: - y[6,7] + r[6,7] <= 0
 mccormick2[6,9]: - y[6,9] + r[6,9] <= 0
 mccormick2[7,0]: - y[7,0] + r[7,0] <= 0
 mccormick2[7,1]: - y[7,1] + r[7,1] <= 0
 mccormick2[7,2]: - y[7,2] + r[7,2] <= 0
 mccormick2[7,3]: - y[7,3] + r[7,3] <= 0
 mccormick2[7,4]: - y[7,4] + r[7,4] <= 0
 mccormick2[7,5]: - y[7,5] + r[7,5] <= 0
 mccormick2[7,6]: - y[7,6] + r[7,6] <= 0
 mccormick2[7,9]: - y[7,9] + r[7,9] <= 0
 mccormick2[7,10]: - y[7,10] + r[7,10] <= 0
 mccormick2[8,0]: - y[8,0] + r[8,0] <= 0
 mccormick2[8,3]: - y[8,3] + r[8,3] <= 0
 mccormick2[8,4]: - y[8,4] + r[8,4] <= 0
 mccormick2[8,9]: - y[8,9] + r[8,9] <= 0
 mccormick2[9,0]: - y[9,0] + r[9,0] <= 0
 mccormick2[9,1]: - y[9,1] + r[9,1] <= 0
 mccormick2[9,2]: - y[9,2] + r[9,2] <= 0
 mccormick2[9,3]: - y[9,3] + r[9,3] <= 0
 mccormick2[9,4]: - y[9,4] + r[9,4] <= 0
 mccormick2[9,5]: - y[9,5] + r[9,5] <= 0
 mccormick2[9,6]: - y[9,6] + r[9,6] <= 0
 mccormick2[9,7]: - y[9,7] + r[9,7] <= 0
 mccormick2[9,8]: - y[9,8] + r[9,8] <= 0
 mccormick2[10,0]: - y[10,0] + r[10,0] <= 0
 mccormick2[10,1]: - y[10,1] + r[10,1] <= 0
 mccormick2[10,2]: - y[10,2] + r[10,2] <= 0
 mccormick2[10,3]: - y[10,3] + r[10,3] <= 0
 mccormick2[10,4]: - y[10,4] + r[10,4] <= 0
 mccormick2[10,5]: - y[10,5] + r[10,5] <= 0
 mccormick2[10,7]: - y[10,7] + r[10,7] <= 0
 mccormick3[0,1]: - y[0,1] - u[0,1] + r[0,1] >= -1
 mccormick3[0,2]: - y[0,2] - u[0,2] + r[0,2] >= -1
 mccormick3[0,3]: - y[0,3] - u[0,3] + r[0,3] >= -1
 mccormick3[0,4]: - y[0,4] - u[0,4] + r[0,4] >= -1
 mccormick3[0,5]: - y[0,5] - u[0,5] + r[0,5] >= -1
 mccormick3[0,7]: - y[0,7] - u[0,7] + r[0,7] >= -1
 mccormick3[0,8]: - y[0,8] - u[0,8] + r[0,8] >= -1
 mccormick3[0,9]: - y[0,9] - u[0,9] + r[0,9] >= -1
 mccormick3[0,10]: - y[0,10] - u[0,10] + r[0,10] >= -1
 mccormick3[1,0]: - y[1,0] - u[1,0] + r[1,0] >= -1
 mccormick3[1,2]: - y[1,2] - u[1,2] + r[1,2] >= -1
 mccormick3[1,3]: - y[1,3] - u[1,3] + r[1,3] >= -1
 mccormick3[1,4]: - y[1,4] - u[1,4] + r[1,4] >= -1
 mccormick3[1,5]: - y[1,5] - u[1,5] + r[1,5] >= -1
 mccormick3[1,6]: - y[1,6] - u[1,6] + r[1,6] >= -1
 mccormick3[1,7]: - y[1,7] - u[1,7] + r[1,7] >= -1
 mccormick3[1,9]: - y[1,9] - u[1,9] + r[1,9] >= -1
 mccormick3[1,10]: - y[1,10] - u[1,10] + r[1,10] >= -1
 mccormick3[2,0]: - y[2,0] - u[2,0] + r[2,0] >= -1
 mccormick3[2,1]: - y[2,1] - u[2,1] + r[2,1] >= -1
 mccormick3[2,3]: - y[2,3] - u[2,3] + r[2,3] >= -1
 mccormick3[2,4]: - y[2,4] - u[2,4] + r[2,4] >= -1
 mccormick3[2,5]: - y[2,5] - u[2,5] + r[2,5] >= -1
 mccormick3[2,6]: - y[2,6] - u[2,6] + r[2,6] >= -1
 mccormick3[2,7]: - y[2,7] - u[2,7] + r[2,7] >= -1
 mccormick3[2,9]: - y[2,9] - u[2,9] + r[2,9] >= -1
 mccormick3[2,10]: - y[2,10] - u[2,10] + r[2,10] >= -1
 mccormick3[3,0]: - y[3,0] - u[3,0] + r[3,0] >= -1
 mccormick3[3,1]: - y[3,1] - u[3,1] + r[3,1] >= -1
 mccormick3[3,2]: - y[3,2] - u[3,2] + r[3,2] >= -1
 mccormick3[3,4]: - y[3,4] - u[3,4] + r[3,4] >= -1
 mccormick3[3,5]: - y[3,5] - u[3,5] + r[3,5] >= -1
 mccormick3[3,7]: - y[3,7] - u[3,7] + r[3,7] >= -1
 mccormick3[3,8]: - y[3,8] - u[3,8] + r[3,8] >= -1
 mccormick3[3,9]: - y[3,9] - u[3,9] + r[3,9] >= -1
 mccormick3[3,10]: - y[3,10] - u[3,10] + r[3,10] >= -1
 mccormick3[4,0]: - y[4,0] - u[4,0] + r[4,0] >= -1
 mccormick3[4,1]: - y[4,1] - u[4,1] + r[4,1] >= -1
 mccormick3[4,2]: - y[4,2] - u[4,2] + r[4,2] >= -1
 mccormick3[4,3]: - y[4,3] - u[4,3] + r[4,3] >= -1
 mccormick3[4,5]: - y[4,5] - u[4,5] + r[4,5] >= -1
 mccormick3[4,7]: - y[4,7] - u[4,7] + r[4,7] >= -1
 mccormick3[4,8]: - y[4,8] - u[4,8] + r[4,8] >= -1
 mccormick3[4,9]: - y[4,9] - u[4,9] + r[4,9] >= -1
 mccormick3[4,10]: - y[4,10] - u[4,10] + r[4,10] >= -1
 mccormick3[5,0]: - y[5,0] - u[5,0] + r[5,0] >= -1
 mccormick3[5,1]: - y[5,1] - u[5,1] + r[5,1] >= -1
 mccormick3[5,2]: - y[5,2] - u[5,2] + r[5,2] >= -1
 mccormick3[5,3]: - y[5,3] - u[5,3] + r[5,3] >= -1
 mccormick3[5,4]: - y[5,4] - u[5,4] + r[5,4] >= -1
 mccormick3[5,6]: - y[5,6] - u[5,6] + r[5,6] >= -1
 mccormick3[5,7]: - y[5,7] - u[5,7] + r[5,7] >= -1
 mccormick3[5,9]: - y[5,9] - u[5,9] + r[5,9] >= -1
 mccormick3[5,10]: - y[5,10] - u[5,10] + r[5,10] >= -1
 mccormick3[6,1]: - y[6,1] - u[6,1] + r[6,1] >= -1
 mccormick3[6,2]: - y[6,2] - u[6,2] + r[6,2] >= -1
 mccormick3[6,5]: - y[6,5] - u[6,5] + r[6,5] >= -1
 mccormick3[6,7]: - y[6,7] - u[6,7] + r[6,7] >= -1
 mccormick3[6,9]: - y[6,9] - u[6,9] + r[6,9] >= -1
 mccormick3[7,0]: - y[7,0] - u[7,0] + r[7,0] >= -1
 mccormick3[7,1]: - y[7,1] - u[7,1] + r[7,1] >= -1
 mccormick3[7,2]: - y[7,2] - u[7,2] + r[7,2] >= -1
 mccormick3[7,3]: - y[7,3] - u[7,3] + r[7,3] >= -1
 mccormick3[7,4]: - y[7,4] - u[7,4] + r[7,4] >= -1
 mccormick3[7,5]: - y[7,5] - u[7,5] + r[7,5] >= -1
 mccormick3[7,6]: - y[7,6] - u[7,6] + r[7,6] >= -1
 mccormick3[7,9]: - y[7,9] - u[7,9] + r[7,9] >= -1
 mccormick3[7,10]: - y[7,10] - u[7,10] + r[7,10] >= -1
 mccormick3[8,0]: - y[8,0] - u[8,0] + r[8,0] >= -1
 mccormick3[8,3]: - y[8,3] - u[8,3] + r[8,3] >= -1
 mccormick3[8,4]: - y[8,4] - u[8,4] + r[8,4] >= -1
 mccormick3[8,9]: - y[8,9] - u[8,9] + r[8,9] >= -1
 mccormick3[9,0]: - y[9,0] - u[9,0] + r[9,0] >= -1
 mccormick3[9,1]: - y[9,1] - u[9,1] + r[9,1] >= -1
 mccormick3[9,2]: - y[9,2] - u[9,2] + r[9,2] >= -1
 mccormick3[9,3]: - y[9,3] - u[9,3] + r[9,3] >= -1
 mccormick3[9,4]: - y[9,4] - u[9,4] + r[9,4] >= -1
 mccormick3[9,5]: - y[9,5] - u[9,5] + r[9,5] >= -1
 mccormick3[9,6]: - y[9,6] - u[9,6] + r[9,6] >= -1
 mccormick3[9,7]: - y[9,7] - u[9,7] + r[9,7] >= -1
 mccormick3[9,8]: - y[9,8] - u[9,8] + r[9,8] >= -1
 mccormick3[10,0]: - y[10,0] - u[10,0] + r[10,0] >= -1
 mccormick3[10,1]: - y[10,1] - u[10,1] + r[10,1] >= -1
 mccormick3[10,2]: - y[10,2] - u[10,2] + r[10,2] >= -1
 mccormick3[10,3]: - y[10,3] - u[10,3] + r[10,3] >= -1
 mccormick3[10,4]: - y[10,4] - u[10,4] + r[10,4] >= -1
 mccormick3[10,5]: - y[10,5] - u[10,5] + r[10,5] >= -1
 mccormick3[10,7]: - y[10,7] - u[10,7] + r[10,7] >= -1
Bounds
Binaries
 y[0,1] y[0,2] y[0,3] y[0,4] y[0,5] y[0,7] y[0,8] y[0,9] y[0,10] y[1,0]
 y[1,2] y[1,3] y[1,4] y[1,5] y[1,6] y[1,7] y[1,9] y[1,10] y[2,0] y[2,1]
 y[2,3] y[2,4] y[2,5] y[2,6] y[2,7] y[2,9] y[2,10] y[3,0] y[3,1] y[3,2]
 y[3,4] y[3,5] y[3,7] y[3,8] y[3,9] y[3,10] y[4,0] y[4,1] y[4,2] y[4,3]
 y[4,5] y[4,7] y[4,8] y[4,9] y[4,10] y[5,0] y[5,1] y[5,2] y[5,3] y[5,4]
 y[5,6] y[5,7] y[5,9] y[5,10] y[6,1] y[6,2] y[6,5] y[6,7] y[6,9] y[7,0]
 y[7,1] y[7,2] y[7,3] y[7,4] y[7,5] y[7,6] y[7,9] y[7,10] y[8,0] y[8,3]
 y[8,4] y[8,9] y[9,0] y[9,1] y[9,2] y[9,3] y[9,4] y[9,5] y[9,6] y[9,7]
 y[9,8] y[10,0] y[10,1] y[10,2] y[10,3] y[10,4] y[10,5] y[10,7] u[0,1]
 u[0,2] u[0,3] u[0,4] u[0,5] u[0,7] u[0,8] u[0,9] u[0,10] u[1,0] u[1,2]
 u[1,3] u[1,4] u[1,5] u[1,6] u[1,7] u[1,9] u[1,10] u[2,0] u[2,1] u[2,3]
 u[2,4] u[2,5] u[2,6] u[2,7] u[2,9] u[2,10] u[3,0] u[3,1] u[3,2] u[3,4]
 u[3,5] u[3,7] u[3,8] u[3,9] u[3,10] u[4,0] u[4,1] u[4,2] u[4,3] u[4,5]
 u[4,7] u[4,8] u[4,9] u[4,10] u[5,0] u[5,1] u[5,2] u[5,3] u[5,4] u[5,6]
 u[5,7] u[5,9] u[5,10] u[6,1] u[6,2] u[6,5] u[6,7] u[6,9] u[7,0] u[7,1]
 u[7,2] u[7,3] u[7,4] u[7,5] u[7,6] u[7,9] u[7,10] u[8,0] u[8,3] u[8,4]
 u[8,9] u[9,0] u[9,1] u[9,2] u[9,3] u[9,4] u[9,5] u[9,6] u[9,7] u[9,8]
 u[10,0] u[10,1] u[10,2] u[10,3] u[10,4] u[10,5] u[10,7] r[0,1] r[0,2]
 r[0,3] r[0,4] r[0,5] r[0,7] r[0,8] r[0,9] r[0,10] r[1,0] r[1,2] r[1,3]
 r[1,4] r[1,5] r[1,6] r[1,7] r[1,9] r[1,10] r[2,0] r[2,1] r[2,3] r[2,4]
 r[2,5] r[2,6] r[2,7] r[2,9] r[2,10] r[3,0] r[3,1] r[3,2] r[3,4] r[3,5]
 r[3,7] r[3,8] r[3,9] r[3,10] r[4,0] r[4,1] r[4,2] r[4,3] r[4,5] r[4,7]
 r[4,8] r[4,9] r[4,10] r[5,0] r[5,1] r[5,2] r[5,3] r[5,4] r[5,6] r[5,7]
 r[5,9] r[5,10] r[6,1] r[6,2] r[6,5] r[6,7] r[6,9] r[7,0] r[7,1] r[7,2]
 r[7,3] r[7,4] r[7,5] r[7,6] r[7,9] r[7,10] r[8,0] r[8,3] r[8,4] r[8,9]
 r[9,0] r[9,1] r[9,2] r[9,3] r[9,4] r[9,5] r[9,6] r[9,7] r[9,8] r[10,0]
 r[10,1] r[10,2] r[10,3] r[10,4] r[10,5] r[10,7]
End
